0 315.00 195.00
1 309.00 195.00
2 303.00 195.00
3 297.00 195.00
4 291.00 195.00
5 285.00 195.00
6 279.00 195.00
7 273.00 195.00
8 267.00 195.00
9 261.00 195.00
10 255.00 195.00
11 252.00 195.00
12 249.00 195.00
13 246.00 195.00
14 243.00 195.00
15 240.00 195.00
16 237.00 195.00
17 234.00 195.00
18 231.00 195.00
19 228.00 195.00
20 225.00 195.00
21 225.00 192.00
22 225.00 189.00
23 225.00 186.00
24 225.00 183.00
25 225.00 180.00
26 225.00 177.00
27 225.00 174.00
28 225.00 171.00
29 225.00 168.00
30 225.00 165.00
31 225.00 162.00
32 225.00 159.00
33 225.00 156.00
34 225.00 153.00
35 225.00 150.00
36 225.00 147.00
37 225.00 144.00
38 225.00 141.00
39 225.00 138.00
40 225.00 135.00
41 222.00 135.00
42 219.00 135.00
43 216.00 135.00
44 213.00 135.00
45 210.00 135.00
46 207.00 135.00
47 204.00 135.00
48 201.00 135.00
49 198.00 135.00
50 195.00 135.00
51 195.00 138.00
52 195.00 141.00
53 195.00 144.00
54 195.00 147.00
55 195.00 150.00
56 195.00 153.00
57 195.00 156.00
58 195.00 159.00
59 195.00 162.00
60 195.00 165.00
61 195.00 171.00
62 195.00 177.00
63 195.00 183.00
64 195.00 189.00
65 195.00 195.00
66 195.00 198.00
67 195.00 201.00
68 195.00 204.00
69 195.00 207.00
70 195.00 210.00
71 195.00 213.00
72 195.00 216.00
73 195.00 219.00
74 195.00 222.00
75 195.00 225.00
76 198.00 225.00
77 201.00 225.00
78 204.00 225.00
79 207.00 225.00
80 210.00 225.00
81 213.00 225.00
82 216.00 225.00
83 219.00 225.00
84 222.00 225.00
85 225.00 225.00
86 231.00 225.00
87 237.00 225.00
88 243.00 225.00
89 249.00 225.00
90 255.00 225.00
91 261.00 225.00
92 267.00 225.00
93 273.00 225.00
94 279.00 225.00
95 285.00 225.00
96 291.00 225.00
97 297.00 225.00
98 303.00 225.00
99 309.00 225.00
100 315.00 225.00
101 321.00 225.00
102 327.00 225.00
103 333.00 225.00
104 339.00 225.00
105 345.00 225.00
106 351.00 225.00
107 357.00 225.00
108 363.00 225.00
109 369.00 225.00
110 375.00 225.00
111 381.00 225.00
112 387.00 225.00
113 393.00 225.00
114 399.00 225.00
115 405.00 225.00
116 411.00 225.00
117 417.00 225.00
118 423.00 225.00
119 429.00 225.00
120 435.00 225.00
121 441.00 225.00
122 447.00 225.00
123 453.00 225.00
124 459.00 225.00
125 465.00 225.00
126 471.00 225.00
127 477.00 225.00
128 483.00 225.00
129 489.00 225.00
130 495.00 225.00
131 501.00 225.00
132 507.00 225.00
133 513.00 225.00
134 519.00 225.00
135 525.00 225.00
136 531.00 225.00
137 537.00 225.00
138 543.00 225.00
139 549.00 225.00
140 555.00 225.00
141 558.00 225.00
142 561.00 225.00
143 564.00 225.00
144 567.00 225.00
145 570.00 225.00
146 573.00 225.00
147 576.00 225.00
148 579.00 225.00
149 582.00 225.00
150 585.00 225.00
151 585.00 222.00
152 585.00 219.00
153 585.00 216.00
154 585.00 213.00
155 585.00 210.00
156 585.00 207.00
157 585.00 204.00
158 585.00 201.00
159 585.00 198.00
160 585.00 195.00
161 585.00 189.00
162 585.00 183.00
163 585.00 177.00
164 585.00 171.00
165 585.00 165.00
166 585.00 162.00
167 585.00 159.00
168 585.00 156.00
169 585.00 153.00
170 585.00 150.00
171 585.00 147.00
172 585.00 144.00
173 585.00 141.00
174 585.00 138.00
175 585.00 135.00
176 582.00 135.00
177 579.00 135.00
178 576.00 135.00
179 573.00 135.00
180 570.00 135.00
181 567.00 135.00
182 564.00 135.00
183 561.00 135.00
184 558.00 135.00
185 555.00 135.00
186 552.00 135.00
187 549.00 135.00
188 546.00 135.00
189 543.00 135.00
190 540.00 135.00
191 537.00 135.00
192 534.00 135.00
193 531.00 135.00
194 528.00 135.00
195 525.00 135.00
196 525.00 132.00
197 525.00 129.00
198 525.00 126.00
199 525.00 123.00
200 525.00 120.00
201 525.00 117.00
202 525.00 114.00
203 525.00 111.00
204 525.00 108.00
205 525.00 105.00
206 525.00 99.00
207 525.00 93.00
208 525.00 87.00
209 525.00 81.00
210 525.00 75.00
211 525.00 69.00
212 525.00 63.00
213 525.00 57.00
214 525.00 51.00
215 525.00 45.00
216 525.00 42.00
217 525.00 39.00
218 525.00 36.00
219 525.00 33.00
220 525.00 30.00
221 525.00 27.00
222 525.00 24.00
223 525.00 21.00
224 525.00 18.00
225 525.00 15.00
226 522.00 15.00
227 519.00 15.00
228 516.00 15.00
229 513.00 15.00
230 510.00 15.00
231 507.00 15.00
232 504.00 15.00
233 501.00 15.00
234 498.00 15.00
235 495.00 15.00
236 495.00 18.00
237 495.00 21.00
238 495.00 24.00
239 495.00 27.00
240 495.00 30.00
241 495.00 33.00
242 495.00 36.00
243 495.00 39.00
244 495.00 42.00
245 495.00 45.00
246 495.00 51.00
247 495.00 57.00
248 495.00 63.00
249 495.00 69.00
250 495.00 75.00
251 495.00 81.00
252 495.00 87.00
253 495.00 93.00
254 495.00 99.00
255 495.00 105.00
256 495.00 108.00
257 495.00 111.00
258 495.00 114.00
259 495.00 117.00
260 495.00 120.00
261 495.00 123.00
262 495.00 126.00
263 495.00 129.00
264 495.00 132.00
265 495.00 135.00
266 492.00 135.00
267 489.00 135.00
268 486.00 135.00
269 483.00 135.00
270 480.00 135.00
271 477.00 135.00
272 474.00 135.00
273 471.00 135.00
274 468.00 135.00
275 465.00 135.00
276 462.00 135.00
277 459.00 135.00
278 456.00 135.00
279 453.00 135.00
280 450.00 135.00
281 447.00 135.00
282 444.00 135.00
283 441.00 135.00
284 438.00 135.00
285 435.00 135.00
286 435.00 138.00
287 435.00 141.00
288 435.00 144.00
289 435.00 147.00
290 435.00 150.00
291 435.00 153.00
292 435.00 156.00
293 435.00 159.00
294 435.00 162.00
295 435.00 165.00
296 438.00 165.00
297 441.00 165.00
298 444.00 165.00
299 447.00 165.00
300 450.00 165.00
301 453.00 165.00
302 456.00 165.00
303 459.00 165.00
304 462.00 165.00
305 465.00 165.00
306 471.00 165.00
307 477.00 165.00
308 483.00 165.00
309 489.00 165.00
310 495.00 165.00
311 501.00 165.00
312 507.00 165.00
313 513.00 165.00
314 519.00 165.00
315 525.00 165.00
316 528.00 165.00
317 531.00 165.00
318 534.00 165.00
319 537.00 165.00
320 540.00 165.00
321 543.00 165.00
322 546.00 165.00
323 549.00 165.00
324 552.00 165.00
325 555.00 165.00
326 555.00 168.00
327 555.00 171.00
328 555.00 174.00
329 555.00 177.00
330 555.00 180.00
331 555.00 183.00
332 555.00 186.00
333 555.00 189.00
334 555.00 192.00
335 555.00 195.00
336 552.00 195.00
337 549.00 195.00
338 546.00 195.00
339 543.00 195.00
340 540.00 195.00
341 537.00 195.00
342 534.00 195.00
343 531.00 195.00
344 528.00 195.00
345 525.00 195.00
346 519.00 195.00
347 513.00 195.00
348 507.00 195.00
349 501.00 195.00
350 495.00 195.00
351 489.00 195.00
352 483.00 195.00
353 477.00 195.00
354 471.00 195.00
355 465.00 195.00
356 459.00 195.00
357 453.00 195.00
358 447.00 195.00
359 441.00 195.00
360 435.00 195.00
361 429.00 195.00
362 423.00 195.00
363 417.00 195.00
364 411.00 195.00
365 405.00 195.00
366 399.00 195.00
367 393.00 195.00
368 387.00 195.00
369 381.00 195.00
370 375.00 195.00
371 369.00 195.00
372 363.00 195.00
373 357.00 195.00
374 351.00 195.00
375 345.00 195.00
